Maximize
168.0 x0 +840.0 x1 +1512.0 x2 +2408.0 x3 +3304.0 x4 +4840.0 x5 +6376.0 x6 
Subject To
-56.0 x0 +168.0 x1 +392.0 x2 +392.0 x3 +392.0 x4 +136.0 x5 -120.0 x6  <= 13
-56.0 x0 +168.0 x1 +392.0 x2 +392.0 x3 +392.0 x4 +136.0 x5 -120.0 x6  >= -1
-56.0 x0 +168.0 x1 +392.0 x2 +392.0 x3 +392.0 x4 +136.0 x5 -120.0 x6  <= 13
-56.0 x0 +168.0 x1 +392.0 x2 +392.0 x3 +392.0 x4 +136.0 x5 -120.0 x6  >= -1
56.0 x0 +56.0 x1 +56.0 x2 +56.0 x3 +56.0 x4 -200.0 x5 -456.0 x6  <= 13
56.0 x0 +56.0 x1 +56.0 x2 +56.0 x3 +56.0 x4 -200.0 x5 -456.0 x6  >= -1
-24.0 x0 -120.0 x1 -216.0 x2 -88.0 x3 +40.0 x4 +40.0 x5 +40.0 x6  <= 13
-24.0 x0 -120.0 x1 -216.0 x2 -88.0 x3 +40.0 x4 +40.0 x5 +40.0 x6  >= -1
-24.0 x0 -120.0 x1 -24.0 x2 +104.0 x3 -24.0 x4 -24.0 x5 -24.0 x6  <= 13
-24.0 x0 -120.0 x1 -24.0 x2 +104.0 x3 -24.0 x4 -24.0 x5 -24.0 x6  >= -1
-72.0 x0 -168.0 x1 -264.0 x2 -392.0 x3 -520.0 x4 -520.0 x5 -520.0 x6  <= 13
-72.0 x0 -168.0 x1 -264.0 x2 -392.0 x3 -520.0 x4 -520.0 x5 -520.0 x6  >= -1
-24.0 x0 +72.0 x1 -24.0 x2 +104.0 x3 -24.0 x4 -24.0 x5 -24.0 x6  <= 13
-24.0 x0 +72.0 x1 -24.0 x2 +104.0 x3 -24.0 x4 -24.0 x5 -24.0 x6  >= -1
24.0 x0 +120.0 x1 +216.0 x2 +88.0 x3 -40.0 x4 -40.0 x5 -40.0 x6  <= 13
24.0 x0 +120.0 x1 +216.0 x2 +88.0 x3 -40.0 x4 -40.0 x5 -40.0 x6  >= -1
0.0 x0 +0.0 x1 +0.0 x2 -112.0 x3 -224.0 x4 -32.0 x5 +160.0 x6  <= 13
0.0 x0 +0.0 x1 +0.0 x2 -112.0 x3 -224.0 x4 -32.0 x5 +160.0 x6  >= -1
-24.0 x0 -24.0 x1 -24.0 x2 -88.0 x3 -24.0 x4 -24.0 x5 -24.0 x6  <= 13
-24.0 x0 -24.0 x1 -24.0 x2 -88.0 x3 -24.0 x4 -24.0 x5 -24.0 x6  >= -1
-24.0 x0 -24.0 x1 -24.0 x2 +40.0 x3 +104.0 x4 +104.0 x5 +104.0 x6  <= 13
-24.0 x0 -24.0 x1 -24.0 x2 +40.0 x3 +104.0 x4 +104.0 x5 +104.0 x6  >= -1
8.0 x0 +40.0 x1 +8.0 x2 +8.0 x3 +8.0 x4 +8.0 x5 +8.0 x6  <= 13
8.0 x0 +40.0 x1 +8.0 x2 +8.0 x3 +8.0 x4 +8.0 x5 +8.0 x6  >= -1
-8.0 x0 +24.0 x1 +56.0 x2 +56.0 x3 +56.0 x4 +56.0 x5 +56.0 x6  <= 13
-8.0 x0 +24.0 x1 +56.0 x2 +56.0 x3 +56.0 x4 +56.0 x5 +56.0 x6  >= -1
24.0 x0 +56.0 x1 +24.0 x2 +24.0 x3 +24.0 x4 +24.0 x5 +24.0 x6  <= 13
24.0 x0 +56.0 x1 +24.0 x2 +24.0 x3 +24.0 x4 +24.0 x5 +24.0 x6  >= -1
-8.0 x0 +24.0 x1 -8.0 x2 -8.0 x3 -8.0 x4 -8.0 x5 -8.0 x6  <= 13
-8.0 x0 +24.0 x1 -8.0 x2 -8.0 x3 -8.0 x4 -8.0 x5 -8.0 x6  >= -1
8.0 x0 -24.0 x1 +8.0 x2 +8.0 x3 +8.0 x4 +8.0 x5 +8.0 x6  <= 13
8.0 x0 -24.0 x1 +8.0 x2 +8.0 x3 +8.0 x4 +8.0 x5 +8.0 x6  >= -1
24.0 x0 -8.0 x1 +24.0 x2 +24.0 x3 +24.0 x4 +24.0 x5 +24.0 x6  <= 13
24.0 x0 -8.0 x1 +24.0 x2 +24.0 x3 +24.0 x4 +24.0 x5 +24.0 x6  >= -1
-8.0 x0 -40.0 x1 -8.0 x2 -8.0 x3 -8.0 x4 -8.0 x5 -8.0 x6  <= 13
-8.0 x0 -40.0 x1 -8.0 x2 -8.0 x3 -8.0 x4 -8.0 x5 -8.0 x6  >= -1
24.0 x0 -8.0 x1 -40.0 x2 -40.0 x3 -40.0 x4 -40.0 x5 -40.0 x6  <= 13
24.0 x0 -8.0 x1 -40.0 x2 -40.0 x3 -40.0 x4 -40.0 x5 -40.0 x6  >= -1
0.0 x0 +0.0 x1 +0.0 x2 -32.0 x3 +0.0 x4 +0.0 x5 +0.0 x6  <= 13
0.0 x0 +0.0 x1 +0.0 x2 -32.0 x3 +0.0 x4 +0.0 x5 +0.0 x6  >= -1
0.0 x0 +0.0 x1 +0.0 x2 -32.0 x3 +0.0 x4 +0.0 x5 +0.0 x6  <= 13
0.0 x0 +0.0 x1 +0.0 x2 -32.0 x3 +0.0 x4 +0.0 x5 +0.0 x6  >= -1
-8.0 x0 -8.0 x1 -8.0 x2 -8.0 x3 -8.0 x4 -8.0 x5 -8.0 x6  <= 13
-8.0 x0 -8.0 x1 -8.0 x2 -8.0 x3 -8.0 x4 -8.0 x5 -8.0 x6  >= -1
0.0 x0 +0.0 x1 +0.0 x2 +16.0 x3 +0.0 x4 +0.0 x5 +0.0 x6  <= 13
0.0 x0 +0.0 x1 +0.0 x2 +16.0 x3 +0.0 x4 +0.0 x5 +0.0 x6  >= -1
x22 - x23 = 0
End
